c Result of efficient AIG-to-CNF conversion using package CNF
p cnf 251 787
-2 -3 89 134 0
-2 4 89 134 0
2 -134 0
2 -89 0
2 3 -4 0
-3 220 221 0
3 -220 0
3 -221 0
-4 5 33 52 63 0
4 -63 0
4 -52 0
4 -5 0
4 -33 0
5 -212 -6 21 30 0
-5 -30 0
-5 212 0
-5 -21 0
-5 6 0
6 247 7 -14 0
6 -247 7 -9 0
-6 -7 0
-6 -247 9 0
-6 247 14 0
-7 226 227 8 0
7 -8 0
7 -227 0
7 -226 0
-8 228 229 230 231 0
8 -231 0
8 -230 0
8 -228 0
8 -229 0
9 248 -10 0
9 -248 -13 0
-9 -248 13 0
-9 248 10 0
10 249 -11 0
10 -249 -12 0
-10 -249 12 0
-10 249 11 0
11 -228 250 0
11 -226 -250 0
-11 228 250 0
-11 226 -250 0
12 -224 250 0
12 -222 -250 0
-12 224 250 0
-12 222 -250 0
13 -220 249 250 0
-13 220 0
-13 -250 0
-13 -249 0
14 248 -15 0
14 -248 -18 0
-14 -248 18 0
-14 248 15 0
15 249 -16 0
15 -249 -17 0
-15 -249 17 0
-15 249 16 0
16 -244 250 0
16 -242 -250 0
-16 244 250 0
-16 242 -250 0
17 -240 250 0
17 -238 -250 0
-17 240 250 0
-17 238 -250 0
18 249 -19 0
18 -249 -20 0
-18 -249 20 0
-18 249 19 0
19 -236 250 0
19 -234 -250 0
-19 236 250 0
-19 234 -250 0
20 -232 250 0
20 -230 -250 0
-20 232 250 0
-20 230 -250 0
-21 22 26 0
21 -22 0
21 -26 0
-22 242 23 24 0
22 -24 0
22 -23 0
22 -242 0
-23 232 233 0
23 -232 0
23 -233 0
-24 239 25 0
24 -239 0
24 -25 0
-25 243 244 245 246 0
25 -246 0
25 -245 0
25 -243 0
25 -244 0
-26 27 29 0
26 -27 0
26 -29 0
-27 236 237 238 28 0
27 -28 0
27 -238 0
27 -236 0
27 -237 0
-28 240 241 0
28 -240 0
28 -241 0
-29 234 235 0
29 -234 0
29 -235 0
-30 31 32 0
30 -31 0
30 -32 0
-31 224 225 0
31 -224 0
31 -225 0
-32 222 223 0
32 -222 0
32 -223 0
33 247 -34 -45 0
33 -247 -39 -45 0
-33 45 0
-33 -247 39 0
-33 247 34 0
34 -248 -36 0
34 248 -249 -35 0
-34 -248 36 0
-34 248 35 0
-34 248 249 0
35 -243 250 0
35 -241 -250 0
-35 243 250 0
-35 241 -250 0
36 249 -37 0
36 -249 -38 0
-36 -249 38 0
-36 249 37 0
37 -239 250 0
37 -237 -250 0
-37 239 250 0
-37 237 -250 0
38 -235 250 0
38 -233 -250 0
-38 235 250 0
-38 233 -250 0
39 248 -40 0
39 -248 -43 0
-39 -248 43 0
-39 248 40 0
40 249 -41 0
40 -249 -42 0
-40 -249 42 0
-40 249 41 0
41 -231 250 0
41 -229 -250 0
-41 231 250 0
-41 229 -250 0
42 -227 250 0
42 -225 -250 0
-42 227 250 0
-42 225 -250 0
43 249 -44 0
43 -219 -249 250 0
-43 249 44 0
-43 -249 -250 0
-43 219 -249 0
44 -223 250 0
44 -221 -250 0
-44 223 250 0
-44 221 -250 0
45 46 47 -48 0
-45 -46 0
-45 -47 0
-45 48 0
-46 237 238 239 23 0
46 -23 0
46 -239 0
46 -237 0
46 -238 0
-47 8 32 0
47 -8 0
47 -32 0
48 -215 49 50 51 0
-48 -51 0
-48 215 0
-48 -50 0
-48 -49 0
-49 226 227 31 0
49 -31 0
49 -227 0
49 -226 0
-50 242 25 28 0
50 -28 0
50 -25 0
50 -242 0
-51 236 29 0
51 -236 0
51 -29 0
52 247 56 -58 0
52 -53 56 -58 0
-52 58 0
-52 -56 0
-52 -247 53 0
53 248 -54 0
53 -248 -55 0
-53 -248 55 0
-53 248 54 0
54 -249 -11 0
54 249 -20 0
-54 249 20 0
-54 -249 11 0
55 249 -12 0
55 -220 -249 250 0
-55 249 12 0
-55 -249 -250 0
-55 220 -249 0
-56 49 57 0
56 -49 0
56 -57 0
-57 23 51 0
57 -23 0
57 -51 0
58 -247 47 -61 0
58 47 -59 -61 0
-58 61 0
-58 -47 0
-58 247 59 0
59 -248 -60 0
59 248 -249 -16 0
-59 -248 60 0
-59 248 16 0
-59 248 249 0
60 249 -17 0
60 -249 -19 0
-60 -249 19 0
-60 249 17 0
61 -216 62 0
-61 216 0
-61 -62 0
-62 237 238 239 50 0
62 -50 0
62 -239 0
62 -237 0
62 -238 0
-63 64 75 0
-63 -47 64 0
-63 -56 64 0
63 -64 0
63 47 56 -75 0
64 -211 22 29 -65 0
-64 65 0
-64 211 0
-64 -29 0
-64 -22 0
65 -247 66 -71 0
65 247 66 -68 0
-65 -66 0
-65 -247 71 0
-65 247 68 0
-66 8 27 67 0
66 -8 0
66 -27 0
66 -67 0
-67 32 49 0
67 -32 0
67 -49 0
68 248 -69 0
68 -248 -70 0
-68 -248 70 0
-68 248 69 0
69 249 -35 0
69 -249 -37 0
-69 -249 37 0
-69 249 35 0
70 249 -38 0
70 -249 -41 0
-70 -249 41 0
-70 249 38 0
71 -72 -74 0
71 248 -72 0
-71 72 0
-71 -248 74 0
-72 248 73 0
72 -248 0
72 -73 0
73 249 -42 0
73 -249 -44 0
-73 -249 44 0
-73 249 42 0
74 -219 249 250 0
-74 219 0
-74 -250 0
-74 -249 0
75 247 -76 -84 0
75 -247 -76 -77 0
-75 76 0
-75 -247 77 0
-75 247 84 0
76 -217 62 0
-76 217 0
-76 -62 0
77 248 -78 0
77 -248 -81 0
-77 -248 81 0
-77 248 78 0
78 249 -79 0
78 -249 -80 0
-78 -249 80 0
-78 249 79 0
79 -233 250 0
79 -231 -250 0
-79 233 250 0
-79 231 -250 0
80 -229 250 0
80 -227 -250 0
-80 229 250 0
-80 227 -250 0
81 249 -82 0
81 -249 -83 0
-81 -249 83 0
-81 249 82 0
82 -225 250 0
82 -223 -250 0
-82 225 250 0
-82 223 -250 0
83 -221 250 0
83 -219 -250 0
-83 221 250 0
-83 219 -250 0
84 -248 -86 0
84 248 -249 -85 0
-84 -248 86 0
-84 248 85 0
-84 248 249 0
85 -245 250 0
85 -243 -250 0
-85 245 250 0
-85 243 -250 0
86 249 -87 0
86 -249 -88 0
-86 -249 88 0
-86 249 87 0
87 -241 250 0
87 -239 -250 0
-87 241 250 0
-87 239 -250 0
88 -237 250 0
88 -235 -250 0
-88 237 250 0
-88 235 -250 0
89 21 -91 0
89 90 21 -117 0
-89 -21 0
-89 91 117 0
-89 -90 91 0
-90 230 231 0
90 -230 0
90 -231 0
-91 92 106 0
-91 213 92 0
-91 -90 92 0
91 -92 0
91 -213 90 -106 0
92 -214 8 67 -93 0
-92 93 0
-92 214 0
-92 -67 0
-92 -8 0
93 247 3 -99 0
93 -247 3 -94 0
-93 -3 0
-93 -247 94 0
-93 247 99 0
94 248 -95 0
94 -248 -98 0
-94 -248 98 0
-94 248 95 0
95 249 -96 0
95 -249 -97 0
-95 -249 97 0
-95 249 96 0
96 -230 250 0
96 -228 -250 0
-96 230 250 0
-96 228 -250 0
97 -226 250 0
97 -224 -250 0
-97 226 250 0
-97 224 -250 0
98 -220 249 -250 0
98 -222 249 250 0
-98 -249 0
-98 220 -250 0
-98 222 250 0
99 248 -100 0
99 -248 -103 0
-99 -248 103 0
-99 248 100 0
100 249 -101 0
100 -249 -102 0
-100 -249 102 0
-100 249 101 0
101 -246 250 0
101 -244 -250 0
-101 246 250 0
-101 244 -250 0
102 -242 250 0
102 -240 -250 0
-102 242 250 0
-102 240 -250 0
103 249 -104 0
103 -249 -105 0
-103 -249 105 0
-103 249 104 0
104 -238 250 0
104 -236 -250 0
-104 238 250 0
-104 236 -250 0
105 -234 250 0
105 -232 -250 0
-105 234 250 0
-105 232 -250 0
106 -247 107 -114 0
106 247 107 -111 0
-106 -107 0
-106 -247 114 0
-106 247 111 0
-107 228 229 108 109 0
107 -228 0
107 -109 0
107 -108 0
107 -229 0
-108 226 227 0
108 -226 0
108 -227 0
-109 31 110 0
109 -31 0
109 -110 0
-110 3 32 0
110 -3 0
110 -32 0
111 248 -112 0
111 -248 -113 0
-111 -248 113 0
-111 248 112 0
112 249 -85 0
112 -249 -87 0
-112 -249 87 0
-112 249 85 0
113 -249 -79 0
113 249 -88 0
-113 249 88 0
-113 -249 79 0
114 248 -115 0
114 -248 -116 0
-114 -248 116 0
-114 248 115 0
115 249 -80 0
115 -249 -82 0
-115 -249 82 0
-115 249 80 0
116 -219 249 -250 0
116 -221 249 250 0
-116 -249 0
-116 219 -250 0
-116 221 250 0
-117 118 133 0
-117 118 -132 0
117 -118 0
117 132 -133 0
118 107 -119 0
118 107 -129 0
118 107 -126 0
-118 -107 0
-118 119 126 129 0
119 -210 247 -123 0
119 -210 -247 -120 0
-119 210 0
-119 -247 120 0
-119 247 123 0
120 248 -121 0
-120 -248 0
-120 121 0
121 249 -97 0
121 -249 -122 0
-121 -249 122 0
-121 249 97 0
122 -222 250 0
122 -220 -250 0
-122 222 250 0
-122 220 -250 0
123 248 -124 0
123 -248 -125 0
-123 -248 125 0
-123 248 124 0
124 249 -102 0
124 -249 -104 0
-124 -249 104 0
-124 249 102 0
125 -249 -96 0
125 249 -105 0
-125 249 105 0
-125 -249 96 0
126 -207 127 -128 0
126 -207 -36 127 0
-126 207 0
-126 -127 0
-126 36 128 0
127 -248 40 0
127 -247 43 0
127 -247 -248 0
-127 248 -43 0
-127 247 -40 0
-127 247 248 0
-128 247 248 0
128 -247 0
128 -248 0
129 -209 -86 130 0
129 -209 -128 130 0
-129 -130 0
-129 209 0
-129 86 128 0
-130 247 248 0
-130 -78 -131 0
-130 248 -131 0
-130 247 -78 0
130 -248 78 0
130 -247 131 0
131 248 -81 0
-131 -248 0
-131 81 0
-132 248 -55 0
-132 247 -54 0
-132 247 248 0
132 -248 54 0
132 -247 55 0
132 -247 -248 0
133 -208 107 -128 0
133 -208 -60 107 0
-133 208 0
-133 -107 0
-133 60 128 0
-134 135 -150 160 0
-134 135 152 160 0
134 -135 0
134 -160 0
134 150 -152 0
135 137 -144 0
135 136 137 -138 0
-135 -137 0
-135 138 144 0
-135 -136 144 0
-136 242 28 0
136 -242 0
136 -28 0
-137 247 25 0
137 -247 0
137 -25 0
138 46 51 139 -141 0
-138 -139 0
-138 141 0
-138 -46 0
-138 -51 0
-139 8 140 0
139 -8 0
139 -140 0
-140 49 110 0
140 -49 0
140 -110 0
-141 142 143 0
-141 187 188 0
-141 188 143 0
-141 187 142 0
141 -188 -142 0
141 -187 -143 0
142 -220 248 249 250 0
-142 -250 0
-142 -249 0
-142 220 0
-142 -248 0
143 248 -74 0
-143 -248 0
-143 74 0
144 8 -145 147 149 0
-144 -149 0
-144 -8 0
-144 -147 0
-144 145 0
145 140 -146 0
145 -193 -131 140 0
-145 -140 0
-145 131 146 0
-145 193 146 0
146 -194 -120 0
-146 194 0
-146 120 0
-147 238 242 148 0
147 -148 0
147 -242 0
147 -238 0
-148 239 28 0
148 -239 0
148 -28 0
-149 237 57 0
149 -237 0
149 -57 0
-150 29 137 147 151 0
150 -151 0
150 -29 0
150 -147 0
150 -137 0
-151 236 237 23 139 0
151 -236 0
151 -139 0
151 -23 0
151 -237 0
-152 114 153 155 0
-152 197 153 155 0
152 -155 0
152 -153 0
152 -197 -114 0
153 248 -154 0
153 -195 -74 -154 0
-153 154 0
-153 -248 74 0
-153 195 -248 0
-154 43 72 0
-154 191 195 0
-154 191 72 0
-154 195 43 0
154 -191 -43 0
154 -195 -72 0
-155 39 156 157 0
-155 199 156 157 0
155 -157 0
155 -156 0
155 -199 -39 0
156 -196 -9 0
-156 196 0
-156 9 0
-157 77 158 159 0
-157 201 158 159 0
157 -159 0
157 -158 0
157 -201 -77 0
158 -202 248 -125 0
158 -202 -248 -121 0
-158 202 0
-158 -248 121 0
-158 248 125 0
-159 53 94 0
-159 198 200 0
-159 200 94 0
-159 198 53 0
159 -200 -53 0
159 -198 -94 0
-160 161 -180 0
-160 161 181 184 0
160 -161 0
160 180 -181 0
160 180 -184 0
161 7 -168 0
161 7 -162 167 0
-161 -7 0
-161 162 168 0
-161 -167 168 0
-162 163 -166 0
-162 163 165 0
-162 189 163 0
162 -163 0
162 -189 -165 166 0
163 -190 32 -98 164 0
-163 -164 0
-163 190 0
-163 98 0
-163 -32 0
-164 238 242 248 31 0
164 -31 0
164 -248 0
164 -238 0
164 -242 0
165 248 -116 0
-165 -248 0
-165 116 0
-166 238 242 30 0
166 -30 0
166 -242 0
166 -238 0
-167 3 137 148 149 0
167 -149 0
167 -3 0
167 -148 0
167 -137 0
168 232 -173 0
168 232 62 -169 0
-168 -232 0
-168 -62 173 0
-168 169 173 0
169 -128 170 -171 0
169 -103 170 -171 0
-169 171 0
-169 -170 0
-169 103 128 0
170 -248 95 0
170 -247 98 0
170 -247 -248 0
-170 248 -98 0
-170 247 -95 0
-170 247 248 0
171 -206 51 110 172 0
-171 -172 0
-171 206 0
-171 -110 0
-171 -51 0
-172 233 31 0
172 -233 0
172 -31 0
173 248 -174 177 0
173 -73 -174 177 0
-173 -177 0
-173 174 0
-173 -248 73 0
174 -70 -175 0
174 -128 -175 0
-174 175 0
-174 70 128 0
175 -203 148 176 172 0
-175 -172 0
-175 203 0
-175 -176 0
-175 -148 0
-176 238 242 0
176 -238 0
176 -242 0
-177 247 178 179 0
-177 -143 178 179 0
177 -179 0
177 -178 0
177 -247 143 0
-178 25 32 0
178 -25 0
178 -32 0
-179 236 237 3 29 0
179 -236 0
179 -29 0
179 -3 0
179 -237 0
-180 7 23 24 0
180 -7 0
180 -23 0
180 -24 0
181 -204 109 -182 183 0
-181 -183 0
-181 204 0
-181 182 0
-181 -109 0
182 242 -18 26 0
182 242 26 -128 0
-182 -242 0
-182 -26 0
-182 18 128 0
-183 248 -13 0
-183 247 -10 0
-183 247 248 0
183 -248 10 0
183 -247 13 0
183 -247 -248 0
184 28 179 -185 186 0
-184 -186 0
-184 -28 0
-184 185 0
-184 -179 0
185 -205 -113 166 0
185 -205 -128 166 0
-185 -166 0
-185 205 0
-185 113 128 0
-186 248 -116 0
-186 247 -115 0
-186 247 248 0
186 -248 115 0
186 -247 116 0
186 -247 -248 0
-251 0
2 0

